p wcnf 3000 300 1
1 1 0
1 2 0
1 3 0
1 4 0
1 5 0
1 6 0
1 7 0
1 8 0
1 9 0
1 10 0
1 11 0
1 12 0
1 13 0
1 14 0
1 15 0
1 1 1 1 1 1 1 1 1 1 1 1 1 1 1 0
1 1 1 2 2 2 2 2 2 2 2 2 2 2 2 0
1 2 2 2 2 2 2 2 2 2 2 2 2 2 2 0
1 2 2 2 2 2 2 3 3 3 3 3 3 3 3 0
1 3 3 3 3 3 3 3 3 3 3 3 3 3 3 0
1 3 3 3 3 3 4 4 4 4 4 4 4 4 4 0
1 4 4 4 4 4 4 4 4 4 4 5 5 5 5 0
1 5 5 5 5 5 5 5 5 5 5 5 5 5 5 0
1 5 5 5 5 5 5 5 6 6 6 6 6 6 6 0
1 6 6 6 6 6 6 6 6 6 6 6 6 6 6 0
1 6 6 6 6 6 6 6 6 6 6 6 6 7 7 0
1 7 7 7 7 7 7 7 7 7 7 7 7 7 7 0
1 7 7 7 7 7 7 7 7 7 7 7 7 7 7 0
1 8 8 8 8 8 8 8 8 8 8 8 8 8 8 0
1 8 8 8 8 8 8 8 8 8 9 9 9 9 9 0
1 9 9 9 9 9 9 9 9 9 9 9 9 9 9 0
1 9 9 9 9 9 9 9 9 9 9 10 10 10 10 0
1 10 10 10 10 10 10 10 10 10 10 10 10 10 10 0
1 10 10 10 10 10 10 10 10 10 10 10 11 11 11 0
1 11 11 11 11 11 11 11 11 11 11 11 11 11 11 0
1 11 11 11 11 11 11 11 11 11 11 11 11 11 11 0
1 12 12 12 12 12 12 12 12 12 12 12 12 12 12 0
1 12 12 12 12 12 12 12 12 12 12 12 12 12 12 0
1 12 12 12 13 13 13 13 13 13 13 13 13 13 13 0
1 13 13 13 13 13 13 13 13 13 13 13 13 13 13 0
1 13 13 13 13 13 14 14 14 14 14 14 14 14 14 0
1 14 14 14 14 14 14 14 14 14 14 14 14 14 14 0
1 14 14 14 14 14 14 14 14 14 14 14 14 15 15 0
1 15 15 15 15 15 15 15 15 15 15 15 15 15 15 0
1 15 15 15 16 16 16 16 16 16 16 16 16 16 16 0
1 16 16 16 16 16 16 16 16 16 16 16 16 16 16 0
1 16 16 16 16 17 17 17 17 17 17 17 17 17 17 0
1 17 17 17 17 17 17 17 17 17 17 17 17 17 17 0
1 17 17 17 17 17 17 17 17 17 18 18 18 18 18 0
1 18 18 18 18 18 18 18 18 18 18 18 18 18 18 0
1 18 18 18 18 19 19 19 19 19 19 19 19 19 19 0
1 19 19 19 19 19 19 19 19 19 19 19 19 19 19 0
1 19 19 19 20 20 20 20 20 20 20 20 20 20 20 0
1 20 20 20 20 20 20 20 20 20 20 20 20 20 20 0
1 20 20 20 20 20 21 21 21 21 21 21 21 21 21 0
1 21 21 21 21 21 21 21 21 21 21 21 21 21 21 0
1 21 21 21 22 22 22 22 22 22 22 22 22 22 22 0
1 22 22 22 22 22 22 22 22 22 22 22 22 22 22 0
1 22 22 23 23 23 23 23 23 23 23 23 23 23 23 0
1 23 23 23 23 23 23 23 23 23 23 23 23 23 23 0
1 23 23 23 23 24 24 24 24 24 24 24 24 24 24 0
1 24 24 24 24 24 24 24 24 24 24 24 24 24 24 0
1 24 24 24 24 24 24 24 24 24 24 24 24 25 25 0
1 25 25 25 25 25 25 25 25 25 25 25 25 25 25 0
1 25 25 25 25 25 25 25 25 25 25 25 25 26 26 0
1 26 26 26 26 26 26 26 26 26 26 26 26 26 26 0
1 26 26 26 26 26 26 26 26 26 26 26 26 26 26 0
1 27 27 27 27 27 27 27 27 27 27 27 27 27 27 0
1 27 27 27 27 27 27 27 27 27 27 27 27 27 27 0
1 28 28 28 28 28 28 28 28 28 28 28 28 28 28 0
1 28 28 28 28 28 28 28 28 28 28 28 28 28 28 0
1 28 28 28 28 28 28 28 29 29 29 29 29 29 29 0
1 29 29 29 29 29 29 29 29 29 29 29 29 29 29 0
1 29 29 29 29 29 29 29 29 29 29 29 29 29 29 0
1 30 30 30 30 30 30 30 30 30 30 30 30 30 30 0
1 30 31 31 31 31 31 31 31 31 31 31 31 31 31 0
1 31 31 31 31 31 31 31 31 31 31 31 31 31 31 0
1 32 32 32 32 32 32 32 32 32 32 32 32 32 32 0
1 32 32 32 32 32 32 32 32 32 32 32 32 32 32 0
1 32 32 32 32 32 32 33 33 33 33 33 33 33 33 0
1 33 33 33 33 33 33 33 33 33 33 33 33 33 34 0
1 34 34 34 34 34 34 34 34 34 34 34 34 34 34 0
1 34 34 34 34 34 34 35 35 35 35 35 35 35 35 0
1 35 35 35 35 35 35 35 35 35 35 35 35 35 35 0
1 35 35 35 36 36 36 36 36 36 36 36 36 36 36 0
1 36 36 36 36 36 36 36 36 36 36 36 36 36 36 0
1 36 37 37 37 37 37 37 37 37 37 37 37 37 37 0
1 37 37 37 37 37 38 38 38 38 38 38 38 38 38 0
1 38 38 38 38 38 38 38 38 38 38 38 38 38 38 0
1 38 39 39 39 39 39 39 39 39 39 39 39 39 39 0
1 39 39 39 39 39 39 39 39 39 39 39 39 39 39 0
1 39 39 39 40 40 40 40 40 40 40 40 40 40 40 0
1 40 40 40 40 40 40 40 40 40 40 40 40 41 41 0
1 41 41 41 41 41 41 41 41 41 41 41 41 41 41 0
1 41 41 41 41 41 42 42 42 42 42 42 42 42 42 0
1 42 42 42 42 42 42 42 42 42 42 42 42 42 42 0
1 42 42 42 42 42 42 42 42 42 42 43 43 43 43 0
1 43 43 43 43 43 43 43 43 43 43 43 43 43 43 0
1 43 43 43 44 44 44 44 44 44 44 44 44 44 44 0
1 44 44 44 44 44 44 44 44 44 44 44 44 44 44 0
1 45 45 45 45 45 45 45 45 45 45 45 45 45 45 0
1 45 45 45 45 45 45 45 45 45 45 45 45 45 45 0
1 46 46 46 46 46 46 46 46 46 46 46 46 46 46 0
1 46 46 46 46 46 46 46 46 46 46 46 46 46 47 0
1 47 47 47 47 47 47 47 47 47 47 47 47 47 47 0
1 47 47 47 47 47 47 47 47 47 47 47 47 47 47 0
1 47 47 47 47 47 47 48 48 48 48 48 48 48 48 0
1 48 48 48 48 48 48 48 48 48 48 48 48 48 48 0
1 48 48 48 48 48 48 48 48 48 48 48 48 48 49 0
1 49 49 49 49 49 49 49 49 49 49 49 49 49 49 0
1 49 49 49 49 49 49 49 49 49 49 49 49 49 49 0
1 50 50 50 50 50 50 50 50 50 50 50 50 50 50 0
1 50 50 50 50 50 50 51 51 51 51 51 51 51 51 0
1 51 51 51 51 51 51 51 51 51 51 51 51 51 51 0
1 51 51 51 51 51 51 51 52 52 52 52 52 52 52 0
1 52 52 52 52 52 52 52 52 52 52 52 52 52 52 0
1 52 52 52 52 53 53 53 53 53 53 53 53 53 53 0
1 53 53 53 53 53 53 53 53 53 53 53 53 53 53 0
1 53 53 53 53 53 53 54 54 54 54 54 54 54 54 0
1 54 54 54 54 54 54 54 54 54 54 54 54 54 54 0
1 54 54 54 54 54 54 54 54 54 55 55 55 55 55 0
1 55 55 55 55 55 55 55 55 55 55 55 55 55 55 0
1 55 55 55 55 55 55 55 55 55 55 55 55 55 56 0
1 56 56 56 56 56 56 56 56 56 56 56 56 56 56 0
1 56 56 56 56 56 56 56 56 56 56 56 56 56 56 0
1 56 56 56 56 56 56 56 56 56 57 57 57 57 57 0
1 57 57 57 57 57 57 57 57 57 57 57 57 57 57 0
1 58 58 58 58 58 58 58 58 58 58 58 58 58 58 0
1 58 58 58 58 58 58 58 58 58 58 58 58 58 58 0
1 58 58 58 59 59 59 59 59 59 59 59 59 59 59 0
1 59 59 59 59 59 59 59 59 59 59 59 59 59 59 0
1 60 60 60 60 60 60 60 60 60 60 60 60 60 60 0
1 60 60 60 60 60 60 60 60 60 60 60 60 60 60 0
1 60 60 60 60 60 60 61 61 61 61 61 61 61 61 0
1 61 61 61 61 61 61 61 61 61 61 61 61 61 61 0
1 61 61 61 61 61 61 61 61 61 61 61 61 61 62 0
1 62 62 62 62 62 62 62 62 62 62 62 62 62 62 0
1 62 62 62 62 62 62 62 62 62 62 62 62 62 62 0
1 63 63 63 63 63 63 63 63 63 63 63 63 63 63 0
1 63 63 63 63 63 63 63 63 63 63 63 63 63 63 0
1 63 64 64 64 64 64 64 64 64 64 64 64 64 64 0
1 64 64 64 64 64 64 64 64 65 65 65 65 65 65 0
1 65 65 65 65 65 65 65 65 65 65 65 65 65 65 0
1 65 65 65 65 65 65 66 66 66 66 66 66 66 66 0
1 66 66 66 66 66 66 66 66 66 66 66 66 66 66 0
1 66 66 66 66 66 66 66 66 66 66 66 66 66 66 0
1 66 67 67 67 67 67 67 67 67 67 67 67 67 67 0
1 67 67 67 67 67 67 67 67 67 67 67 67 67 67 0
1 67 67 67 68 68 68 68 68 68 68 68 68 68 68 0
1 68 68 68 68 68 68 68 68 68 68 68 68 68 68 0
1 68 69 69 69 69 69 69 69 69 69 69 69 69 69 0
1 69 69 69 69 69 69 69 69 69 69 69 69 69 69 0
1 69 69 69 70 70 70 70 70 70 70 70 70 70 70 0
1 70 70 70 70 70 70 70 70 70 70 70 70 70 70 0
1 70 70 70 70 70 70 70 71 71 71 71 71 71 71 0
1 71 71 71 71 71 71 71 71 71 71 71 71 71 71 0
1 71 71 71 71 71 72 72 72 72 72 72 72 72 72 0
1 72 72 72 72 72 72 72 72 72 72 72 72 72 72 0
1 72 72 72 72 72 72 72 72 72 73 73 73 73 73 0
1 73 73 73 73 73 73 73 73 73 73 73 73 73 73 0
1 73 73 73 73 73 73 73 73 73 73 74 74 74 74 0
1 74 74 74 74 74 74 74 74 74 74 74 74 74 74 0
1 74 74 74 74 74 74 74 74 74 74 74 74 74 74 0
1 75 75 75 75 75 75 75 75 75 75 75 75 75 75 0
1 75 75 75 75 75 75 75 75 75 75 75 75 75 75 0
1 76 76 76 76 76 76 76 76 76 76 76 76 76 76 0
1 76 76 76 76 76 76 76 76 76 76 76 76 76 76 0
1 77 77 77 77 77 77 77 77 77 77 77 77 77 77 0
1 77 77 77 77 77 78 78 78 78 78 78 78 78 78 0
1 78 78 78 78 78 78 78 78 78 78 78 78 78 78 0
1 79 79 79 79 79 79 79 79 79 79 79 79 79 79 0
1 79 79 79 79 79 79 79 79 79 79 79 80 80 80 0
1 80 80 80 80 80 80 80 80 80 80 80 80 80 80 0
1 80 80 80 80 80 80 80 80 80 80 80 80 80 80 0
1 80 80 80 80 81 81 81 81 81 81 81 81 81 81 0
1 81 81 81 81 81 81 81 81 81 81 81 81 81 81 0
1 81 81 81 81 81 81 81 81 81 81 81 81 81 81 0
1 81 82 82 82 82 82 82 82 82 82 82 82 82 82 0
1 82 82 82 82 82 82 82 82 82 82 82 82 82 82 0
1 82 83 83 83 83 83 83 83 83 83 83 83 83 83 0
1 83 83 83 83 83 83 83 83 83 83 83 83 83 83 0
1 83 83 84 84 84 84 84 84 84 84 84 84 84 84 0
1 84 84 84 84 84 84 84 85 85 85 85 85 85 85 0
1 85 85 85 85 85 85 85 85 85 85 85 85 85 85 0
1 85 85 85 85 85 85 85 85 85 86 86 86 86 86 0
1 86 86 86 86 86 86 86 86 86 86 86 86 86 86 0
1 86 86 86 86 86 86 86 86 86 86 87 87 87 87 0
1 87 87 87 87 87 87 87 87 87 87 87 87 87 87 0
1 87 87 87 87 87 87 87 87 88 88 88 88 88 88 0
1 88 88 88 88 88 88 88 88 88 88 88 88 88 88 0
1 88 88 88 88 88 88 88 88 88 88 88 88 88 88 0
1 88 88 88 88 88 89 89 89 89 89 89 89 89 89 0
1 89 89 89 89 89 89 89 89 89 89 89 89 89 89 0
1 90 90 90 90 90 90 90 90 90 90 90 90 90 90 0
1 90 90 90 90 90 90 90 90 90 90 90 90 90 90 0
1 91 91 91 91 91 91 91 91 91 91 91 91 91 91 0
1 91 91 91 91 91 91 91 91 91 91 91 91 91 91 0
1 91 91 91 91 91 92 92 92 92 92 92 92 92 92 0
1 92 92 92 92 92 92 92 92 92 92 92 92 93 93 0
1 93 93 93 93 93 93 93 93 93 93 93 93 93 93 0
1 93 93 93 93 93 93 93 93 93 93 94 94 94 94 0
1 94 94 94 94 94 94 94 94 94 94 94 94 94 94 0
1 94 94 94 94 94 94 94 94 94 95 95 95 95 95 0
1 95 95 95 95 95 95 95 95 95 95 95 95 95 95 0
1 95 95 95 95 95 95 96 96 96 96 96 96 96 96 0
1 96 96 96 96 96 96 96 96 96 96 96 97 97 97 0
1 97 97 97 97 97 97 97 97 97 97 97 97 97 97 0
1 97 97 97 97 97 97 97 97 97 97 97 97 97 97 0
1 98 98 98 98 98 98 98 98 98 98 98 98 98 98 0
1 98 98 98 98 98 98 98 98 98 98 98 98 98 98 0
1 99 99 99 99 99 99 99 99 99 99 99 99 99 99 0
1 99 99 99 99 99 99 99 99 99 99 99 99 99 99 0
1 100 100 100 100 100 100 100 100 100 100 100 100 100 100 0
1 100 100 100 100 100 100 100 100 100 100 100 100 100 100 0
1  0
1 45 73 76 144 156 197 206 214 247 327 356 367 420 429 0
1 444 467 475 477 497 507 565 580 593 608 633 650 724 731 0
1 756 763 807 863 869 898 915 925 927 947 951 986 1002 1010 0
1 1047 1067 1080 1111 1116 1128 1131 1138 1144 1148 1162 1175 1237 1252 0
1 1323 1339 1344 1360 1390 1392 1438 1453 1466 1485 1575 1592 1608 1621 0
1 1719 1722 1743 1776 1777 1814 1815 1825 1848 1905 1916 1948 1965 1992 0
1 2062 2063 2085 2109 2117 2137 2165 2169 2188 2225 2255 2272 2286 2298 0
1 2326 2346 2444 2453 2467 2470 2494 2497 2531 2560 2590 2613 2618 2723 0
1 2758 2762 2777 2787 2808 2833 2853 2862 2906 2907 2943 2950 2970 2971 0
1 2994 0
1  0
1 9 20 29 34 75 79 80 109 123 125 167 194 198 228 0
1 274 290 313 335 354 370 396 402 406 424 431 436 438 452 0
1 489 575 578 604 609 644 704 706 721 757 799 812 817 823 0
1 901 906 959 961 968 985 1016 1030 1056 1076 1094 1135 1185 1188 0
1 1193 1201 1202 1229 1260 1273 1291 1296 1307 1321 1325 1333 1349 1365 0
1 1425 1438 1456 1498 1501 1515 1529 1542 1550 1568 1569 1573 1601 1608 0
1 1649 1678 1713 1724 1740 1741 1775 1794 1797 1804 1876 1877 1894 1895 0
1 1915 1956 1980 1997 2037 2055 2110 2117 2144 2171 2181 2192 2284 2297 0
1 2321 2325 2352 2402 2408 2414 2448 2462 2465 2490 2529 2547 2560 2562 0
1 2639 2655 2662 2680 2837 2841 2904 2923 2950 2961 2962 2965 2993 0
1  0
1 11 24 86 92 93 99 121 150 156 160 182 245 261 340 0
1 378 426 435 541 562 577 582 609 614 618 648 651 661 664 0
1 678 704 731 736 739 768 769 778 797 802 803 804 819 858 0
1 1035 1062 1063 1084 1115 1128 1143 1162 1207 1216 1228 1245 1303 1375 0
1 1405 1417 1439 1472 1474 1516 1577 1584 1603 1613 1635 1654 1658 1703 0
1 1758 1806 1815 1849 1854 1860 1883 1887 1908 1917 1931 1991 1993 2032 0
1 2096 2113 2117 2134 2135 2172 2178 2205 2209 2236 2248 2279 2281 2290 0
1 2346 2386 2399 2451 2506 2510 2531 2549 2552 2563 2583 2629 2673 2724 0
1 2762 2803 2815 2825 2829 2843 2867 2901 2904 2910 2927 2937 2945 2970 0
1  0
1  0
1 42 47 54 60 71 150 153 157 168 171 182 183 186 188 0
1 227 240 273 288 301 333 341 346 371 391 392 404 416 469 0
1 480 493 502 504 585 600 610 696 701 723 801 809 855 870 0
1 882 903 908 938 955 984 1054 1072 1123 1132 1218 1230 1248 1269 0
1 1299 1324 1336 1339 1345 1391 1462 1479 1497 1531 1546 1593 1636 1644 0
1 1658 1673 1703 1716 1756 1770 1837 1839 1845 1846 1863 1883 1923 1943 0
1 1991 2036 2046 2112 2114 2118 2130 2169 2202 2292 2301 2310 2319 2328 0
1 2389 2391 2402 2406 2440 2486 2489 2493 2494 2530 2577 2623 2663 2688 0
1 2721 2726 2754 2780 2830 2874 2901 2911 2913 2922 2945 2987 2988 0
1  0
1 19 43 63 76 81 83 118 122 139 147 161 164 202 214 0
1 244 267 282 308 322 334 345 352 403 421 423 456 467 486 0
1 576 578 585 596 601 611 615 628 650 698 707 709 727 762 0
1 782 793 809 811 823 834 842 849 868 897 917 926 934 956 0
1 1010 1011 1028 1040 1100 1136 1154 1247 1282 1285 1297 1300 1315 1350 0
1 1379 1381 1487 1492 1515 1539 1541 1562 1566 1612 1618 1621 1668 1670 0
1 1689 1697 1713 1714 1721 1733 1754 1785 1836 1840 1849 1853 1866 1899 0
1 1974 2022 2044 2083 2110 2129 2130 2132 2188 2223 2252 2275 2277 2298 0
1 2329 2373 2387 2391 2437 2450 2453 2487 2556 2567 2578 2595 2598 2627 0
1 2688 2726 2758 2759 2760 2770 2779 2814 2858 2869 2895 2907 2927 2930 0
1 2971 2980 2991 2992 0
1  0
1 28 37 41 59 180 187 197 299 300 301 302 351 353 424 0
1 448 459 460 545 548 569 573 577 592 595 610 632 679 700 0
1 763 769 809 810 816 834 835 873 882 924 925 950 956 983 0
1 1010 1049 1054 1113 1123 1171 1205 1213 1229 1271 1287 1313 1338 1342 0
1 1395 1449 1453 1469 1480 1503 1518 1572 1573 1580 1609 1613 1626 1652 0
1 1694 1702 1714 1720 1786 1787 1809 1846 1863 1893 1908 1912 1921 1971 0
1 1988 1989 1992 2015 2030 2056 2068 2069 2086 2098 2101 2109 2147 2162 0
1 2216 2241 2254 2309 2325 2374 2379 2393 2446 2456 2474 2506 2537 2563 0
1 2602 2643 2681 2690 2691 2738 2749 2763 2775 2815 2829 2858 2861 2880 0
1 2917 2987 0
1  0
1 22 47 55 68 99 131 191 201 220 250 260 281 294 394 0
1 418 426 438 447 455 460 466 475 507 512 514 521 540 592 0
1 614 625 632 639 659 669 670 746 755 785 798 799 809 834 0
1 853 896 918 953 956 970 974 983 1030 1037 1078 1087 1155 1192 0
1 1250 1268 1270 1289 1297 1346 1350 1398 1427 1428 1466 1468 1501 1512 0
1 1590 1601 1608 1609 1614 1618 1674 1681 1701 1728 1746 1747 1770 1814 0
1 1883 1892 1899 1928 1935 1937 1955 1959 1978 1990 2003 2004 2018 2054 0
1 2088 2106 2175 2176 2276 2285 2325 2376 2383 2391 2417 2421 2439 2517 0
1 2534 2554 2563 2597 2605 2612 2621 2623 2626 2629 2641 2664 2680 2685 0
1 2697 2717 2734 2786 2788 2858 2860 2912 2922 2949 2960 2964 2998 0
1  0
1 67 91 99 105 127 144 156 177 184 208 216 252 274 354 0
1 372 406 413 430 433 450 465 484 493 496 504 506 621 639 0
1 705 719 726 732 744 769 799 902 916 952 955 997 1034 1049 0
1 1275 1326 1341 1354 1383 1384 1404 1435 1461 1467 1501 1523 1559 1568 0
1 1631 1674 1720 1734 1793 1803 1826 1855 1869 1894 1934 1959 1962 1988 0
1 2094 2096 2108 2110 2112 2116 2120 2193 2195 2197 2198 2205 2218 2220 0
1 2229 2237 2247 2255 2259 2264 2266 2270 2304 2306 2318 2345 2357 2368 0
1 2411 2499 2512 2535 2545 2566 2568 2640 2654 2668 2677 2687 2696 2749 0
1 2764 2784 2802 2813 2822 2845 2864 2878 2924 2937 2957 0
1  0
1 9 21 102 108 138 145 169 209 224 233 243 269 288 293 0
1 320 371 382 415 437 449 452 455 461 466 511 521 548 555 0
1 561 599 618 649 655 679 686 701 703 714 729 740 777 788 0
1 808 820 852 890 898 906 912 923 924 930 960 979 1016 1042 0
1 1061 1063 1073 1091 1136 1142 1153 1191 1193 1198 1231 1238 1266 1277 0
1 1335 1343 1353 1390 1471 1493 1494 1499 1514 1535 1539 1588 1623 1633 0
1 1652 1676 1685 1731 1734 1748 1750 1806 1849 1852 1858 1876 1926 1955 0
1 1961 1976 1995 2025 2047 2051 2063 2096 2114 2164 2168 2180 2185 2192 0
1 2208 2212 2236 2245 2246 2336 2339 2350 2374 2423 2424 2436 2451 2468 0
1 2522 2534 2540 2547 2571 2572 2601 2603 2656 2690 2706 2749 2767 2783 0
1 2872 2875 2891 2898 2971 2983 2984 2998 0
1  0
1 39 45 52 60 108 127 138 144 157 158 169 188 189 267 0
